NAME : a280.tsp
TYPE : TOUR
DIMENSION : 280
TOUR_LENGTH : 3079.362988025297
TOUR_SECTION
1
280
2
3
279
278
4
277
276
275
274
273
272
271
16
17
18
133
132
131
130
129
128
127
126
125
30
31
32
33
34
35
36
37
38
39
40
41
42
43
60
61
118
62
63
64
65
66
67
70
71
72
73
74
75
77
78
79
80
81
89
109
108
104
105
106
107
173
174
161
162
163
164
165
166
167
168
169
170
171
172
102
101
100
99
98
97
94
95
96
93
92
91
90
110
111
114
113
87
84
85
86
116
115
117
59
44
45
46
47
48
49
50
51
52
53
54
55
56
57
58
68
69
76
82
83
88
112
103
175
160
159
158
157
119
120
121
122
123
124
29
28
27
26
22
25
23
24
14
13
15
12
11
10
8
9
7
6
5
248
249
250
251
230
229
228
227
226
225
224
223
222
221
220
219
218
215
216
217
213
212
207
208
253
254
255
256
257
258
259
260
261
262
263
264
265
266
140
141
142
143
144
145
146
147
148
149
139
138
137
267
268
269
270
134
135
136
19
20
21
154
155
153
156
152
151
177
176
181
180
179
178
150
182
183
184
185
187
186
190
189
188
191
192
193
194
197
198
199
200
201
196
195
202
203
204
205
206
210
209
252
232
231
238
237
236
235
234
233
240
239
246
245
244
241
243
242
247
211
214
-1
